00001010000010001000000101001000000001000100000000,00000000000000000000000000000000000000000000000000,00000000000000000000000000000000000000000000000000,00000000000000000000000000000000000000000000000000,00000000000000000000000000000000000000000000000000,00000000000000010000000000000010000000000011000010,00000100000000100000000000000000010000000000101000,00100001010001000000001000100001101000101000010101,10010000000000000111000010000100000100010000000000,01000000101100000000110000010000000010000000000000,[0, 0, 0, 0, 7, 0, 7, 0, 0, 0, 0, 0, 7, 0, 0, 0, 2, 0, 0, 0, 0, 0, 0, 2, 0, 2, 0, 0, 7, 0, 0, 0, 0, 0, 0, 0, 0, 2, 0, 0, 0, 2, 0, 0, 0, 0, 0, 0, 0, 0],[],[],[],[],[0, 0, 0, 0, 0, 0, 0, 0, 0, 0, 0, 0, 0, 0, 0, 10, 0, 0, 0, 0, 0, 0, 0, 0, 0, 0, 0, 0, 0, 0, 10, 0, 0, 0, 0, 0, 0, 0, 0, 0, 0, 0, 10, 10, 0, 0, 0, 0, 10, 0],[0, 0, 0, 0, 0, 8, 0, 0, 0, 0, 0, 0, 0, 0, 8, 0, 0, 0, 0, 0, 0, 0, 0, 0, 0, 0, 0, 0, 0, 0, 0, 0, 0, 8, 0, 0, 0, 0, 0, 0, 0, 0, 0, 0, 8, 0, 8, 0, 0, 0],[0, 0, 1, 0, 0, 0, 0, 1, 0, 4, 0, 0, 0, 1, 0, 0, 0, 0, 0, 0, 0, 0, 1, 0, 0, 0, 4, 0, 0, 0, 0, 4, 1, 0, 1, 0, 0, 0, 1, 0, 4, 0, 0, 0, 0, 1, 0, 1, 0, 4],[3, 0, 0, 5, 0, 0, 0, 0, 0, 0, 0, 0, 0, 0, 0, 0, 0, 3, 3, 5, 0, 0, 0, 0, 3, 0, 0, 0, 0, 3, 0, 0, 0, 0, 0, 3, 0, 0, 0, 3, 0, 0, 0, 0, 0, 0, 0, 0, 0, 0],[0, 9, 0, 0, 0, 0, 0, 0, 6, 0, 9, 9, 0, 0, 0, 0, 0, 0, 0, 0, 6, 9, 0, 0, 0, 0, 0, 9, 0, 0, 0, 0, 0, 0, 0, 0, 6, 0, 0, 0, 0, 0, 0, 0, 0, 0, 0, 0, 0, 0][22, 47, 32, 38, 7, 13, 2, 34, 45],[16, 23, 37, 25, 41],[35, 0, 39, 18, 24, 29, 17],[40, 49, 26, 9, 31],[3, 19],[36, 20, 8],[4, 12, 28, 6],[5, 44, 33, 14, 46],[27, 11, 21, 1, 10],[30, 43, 15, 42, 48]
00001110000010001000000101001000000001000100000000,00000000000000000000000000000000000000000000000000,00000000000000000000000000000000000000000000000000,00000000000000000000000000000000000000000000000000,00000000000000000000000000000000000000000000000000,00000000000000010000000000000010000000000011001010,00000000000000000000000000000000000000000000000000,00100001010001000000001000100001101000101000010101,10010000000000000111000010000100000100010000000000,01000000101100100000110000010000010010000000100000,[0, 0, 0, 0, 10, 9, 9, 0, 0, 0, 0, 0, 9, 0, 0, 0, 9, 0, 0, 0, 0, 0, 0, 9, 0, 10, 0, 0, 9, 0, 0, 0, 0, 0, 0, 0, 0, 9, 0, 0, 0, 9, 0, 0, 0, 0, 0, 0, 0, 0],[],[],[],[],[0, 0, 0, 0, 0, 0, 0, 0, 0, 0, 0, 0, 0, 0, 0, 5, 0, 0, 0, 0, 0, 0, 0, 0, 0, 0, 0, 0, 0, 0, 4, 0, 0, 0, 0, 0, 0, 0, 0, 0, 0, 0, 5, 5, 0, 0, 5, 0, 4, 0],[],[0, 0, 6, 0, 0, 0, 0, 6, 0, 1, 0, 0, 0, 1, 0, 0, 0, 0, 0, 0, 0, 0, 6, 0, 0, 0, 6, 0, 0, 0, 0, 6, 1, 0, 6, 0, 0, 0, 1, 0, 1, 0, 0, 0, 0, 1, 0, 6, 0, 6],[2, 0, 0, 2, 0, 0, 0, 0, 0, 0, 0, 0, 0, 0, 0, 0, 0, 2, 3, 3, 0, 0, 0, 0, 3, 0, 0, 0, 0, 2, 0, 0, 0, 0, 0, 2, 0, 0, 0, 2, 0, 0, 0, 0, 0, 0, 0, 0, 0, 0],[0, 7, 0, 0, 0, 0, 0, 0, 7, 0, 7, 8, 0, 0, 7, 0, 0, 0, 0, 0, 8, 8, 0, 0, 0, 0, 0, 7, 0, 0, 0, 0, 0, 8, 0, 0, 8, 0, 0, 0, 0, 0, 0, 0, 7, 0, 0, 0, 0, 0][13, 38, 45, 40, 9, 32],[39, 17, 3, 0, 35, 29],[24, 19, 18],[48, 30],[46, 42, 43, 15],[49, 7, 22, 34, 2, 47, 31, 26],[10, 27, 1, 8, 14, 44],[20, 21, 36, 11, 33],[16, 6, 5, 37, 12, 28, 23, 41],[4, 25]
00001010000010001000000101001000000001000100000000,00000001010000000000001000100000001000101000010001,00000000000000000000000000000000000000000000000000,00000000000000000000000000000000000000000000000000,00000000000000000000000000000000000000000000000000,00000000000000010000000000000010000000000011000010,01000100101100100000110000010000010010000000101000,00100000000001000000000000000001100000000000000100,10010000000000000111000010000100000100010000000000,00000000000000000000000000000000000000000000000000,[0, 0, 0, 0, 6, 0, 6, 0, 0, 0, 0, 0, 4, 0, 0, 0, 4, 0, 0, 0, 0, 0, 0, 6, 0, 4, 0, 0, 6, 0, 0, 0, 0, 0, 0, 0, 0, 6, 0, 0, 0, 6, 0, 0, 0, 0, 0, 0, 0, 0],[0, 0, 0, 0, 0, 0, 0, 2, 0, 2, 0, 0, 0, 0, 0, 0, 0, 0, 0, 0, 0, 0, 2, 0, 0, 0, 5, 0, 0, 0, 0, 0, 0, 0, 5, 0, 0, 0, 2, 0, 2, 0, 0, 0, 0, 5, 0, 0, 0, 2],[],[],[],[0, 0, 0, 0, 0, 0, 0, 0, 0, 0, 0, 0, 0, 0, 0, 3, 0, 0, 0, 0, 0, 0, 0, 0, 0, 0, 0, 0, 0, 0, 3, 0, 0, 0, 0, 0, 0, 0, 0, 0, 0, 0, 3, 3, 0, 0, 0, 0, 3, 0],[0, 1, 0, 0, 0, 1, 0, 0, 9, 0, 9, 1, 0, 0, 1, 0, 0, 0, 0, 0, 1, 9, 0, 0, 0, 0, 0, 9, 0, 0, 0, 0, 0, 1, 0, 0, 9, 0, 0, 0, 0, 0, 0, 0, 1, 0, 1, 0, 0, 0],[0, 0, 8, 0, 0, 0, 0, 0, 0, 0, 0, 0, 0, 8, 0, 0, 0, 0, 0, 0, 0, 0, 0, 0, 0, 0, 0, 0, 0, 0, 0, 8, 8, 0, 0, 0, 0, 0, 0, 0, 0, 0, 0, 0, 0, 0, 0, 8, 0, 0],[10, 0, 0, 10, 0, 0, 0, 0, 0, 0, 0, 0, 0, 0, 0, 0, 0, 10, 7, 10, 0, 0, 0, 0, 7, 0, 0, 0, 0, 7, 0, 0, 0, 0, 0, 7, 0, 0, 0, 7, 0, 0, 0, 0, 0, 0, 0, 0, 0, 0],[][11, 33, 44, 5, 46, 14, 1, 20],[22, 9, 49, 40, 7, 38],[48, 15, 42, 30, 43],[16, 25, 12],[34, 45, 26],[4, 23, 28, 41, 6, 37],[24, 29, 35, 39, 18],[31, 32, 47, 2, 13],[10, 8, 36, 21, 27],[3, 0, 19, 17]
00001110000010011000000101001000000001000110001010,00000000000000000000000000000000000000000000000000,10010000000000000111000010000110000100010001000000,00000000000000000000000000000000000000000000000000,00000000000000000000000000000000000000000000000000,00000000000000000000000000000000000000000000000000,00000000000000000000000000000000000000000000000000,00100001010001000000001000100001101000101000010101,00000000000000000000000000000000000000000000000000,01000000101100100000110000010000010010000000100000,[0, 0, 0, 0, 2, 10, 2, 0, 0, 0, 0, 0, 9, 0, 0, 9, 2, 0, 0, 0, 0, 0, 0, 2, 0, 2, 0, 0, 9, 0, 0, 0, 0, 0, 0, 0, 0, 9, 0, 0, 0, 9, 9, 0, 0, 0, 10, 0, 10, 0],[],[7, 0, 0, 6, 0, 0, 0, 0, 0, 0, 0, 0, 0, 0, 0, 0, 0, 6, 6, 6, 0, 0, 0, 0, 6, 0, 0, 0, 0, 7, 6, 0, 0, 0, 0, 6, 0, 0, 0, 7, 0, 0, 0, 7, 0, 0, 0, 0, 0, 0],[],[],[],[],[0, 0, 1, 0, 0, 0, 0, 1, 0, 3, 0, 0, 0, 1, 0, 0, 0, 0, 0, 0, 0, 0, 3, 0, 0, 0, 3, 0, 0, 0, 0, 1, 3, 0, 1, 0, 0, 0, 1, 0, 3, 0, 0, 0, 0, 1, 0, 1, 0, 3],[],[0, 5, 0, 0, 0, 0, 0, 0, 8, 0, 8, 5, 0, 0, 5, 0, 0, 0, 0, 0, 4, 8, 0, 0, 0, 0, 0, 4, 0, 0, 0, 0, 0, 5, 0, 0, 4, 0, 0, 0, 0, 0, 0, 0, 8, 0, 0, 0, 0, 0][38, 45, 7, 47, 2, 34, 13, 31],[25, 4, 6, 23, 16],[26, 40, 49, 9, 22, 32],[20, 27, 36],[14, 11, 33, 1],[35, 18, 24, 19, 3, 30, 17],[43, 39, 0, 29],[21, 44, 10, 8],[42, 41, 37, 12, 28, 15],[48, 5, 46]
00001010000010001000000101001000000001000100000000,00000001010000000000001000100000001000101000010001,00000000000000000000000000000000000000000000000000,00000000000000000000000000000000000000000000000000,00000000000000000000000000000000000000000000000000,00000000000000010000000000000010000000000011000010,01000100101100100000110000010000010010000000101000,00100000000001000000000000000001100000000000000100,10010000000000000111000010000100000100010000000000,00000000000000000000000000000000000000000000000000,[0, 0, 0, 0, 1, 0, 4, 0, 0, 0, 0, 0, 1, 0, 0, 0, 4, 0, 0, 0, 0, 0, 0, 4, 0, 1, 0, 0, 4, 0, 0, 0, 0, 0, 0, 0, 0, 1, 0, 0, 0, 4, 0, 0, 0, 0, 0, 0, 0, 0],[0, 0, 0, 0, 0, 0, 0, 2, 0, 2, 0, 0, 0, 0, 0, 0, 0, 0, 0, 0, 0, 0, 2, 0, 0, 0, 2, 0, 0, 0, 0, 0, 0, 0, 2, 0, 0, 0, 2, 0, 2, 0, 0, 0, 0, 2, 0, 0, 0, 2],[],[],[],[0, 0, 0, 0, 0, 0, 0, 0, 0, 0, 0, 0, 0, 0, 0, 10, 0, 0, 0, 0, 0, 0, 0, 0, 0, 0, 0, 0, 0, 0, 5, 0, 0, 0, 0, 0, 0, 0, 0, 0, 0, 0, 10, 10, 0, 0, 0, 0, 5, 0],[0, 6, 0, 0, 0, 6, 0, 0, 6, 0, 3, 3, 0, 0, 6, 0, 0, 0, 0, 0, 3, 3, 0, 0, 0, 0, 0, 6, 0, 0, 0, 0, 0, 6, 0, 0, 6, 0, 0, 0, 0, 0, 0, 0, 3, 0, 6, 0, 0, 0],[0, 0, 7, 0, 0, 0, 0, 0, 0, 0, 0, 0, 0, 7, 0, 0, 0, 0, 0, 0, 0, 0, 0, 0, 0, 0, 0, 0, 0, 0, 0, 7, 7, 0, 0, 0, 0, 0, 0, 0, 0, 0, 0, 0, 0, 0, 0, 7, 0, 0],[8, 0, 0, 8, 0, 0, 0, 0, 0, 0, 0, 0, 0, 0, 0, 0, 0, 8, 9, 9, 0, 0, 0, 0, 8, 0, 0, 0, 0, 8, 0, 0, 0, 0, 0, 9, 0, 0, 0, 9, 0, 0, 0, 0, 0, 0, 0, 0, 0, 0],[][25, 4, 12, 37],[7, 22, 34, 45, 9, 40, 49, 26, 38],[11, 20, 10, 44, 21],[41, 23, 6, 28, 16],[48, 30],[5, 27, 8, 36, 33, 1, 14, 46],[32, 47, 2, 13, 31],[29, 17, 3, 24, 0],[39, 18, 35, 19],[42, 15, 43]
00001010000010001000000101001000000001000100000000,00000001010000000000001000100000001000101000010001,00000000000000000000000000000000000000000000000000,00000000000000000000000000000000000000000000000000,00000000000000000000000000000000000000000000000000,00000000000000010000000000000010000000000011000010,01000100101100100000110000010000010010000000101000,00100000000001000000000000000001100000000000000100,10010000000000000111000010000100000100010000000000,00000000000000000000000000000000000000000000000000,[0, 0, 0, 0, 7, 0, 7, 0, 0, 0, 0, 0, 7, 0, 0, 0, 1, 0, 0, 0, 0, 0, 0, 1, 0, 1, 0, 0, 1, 0, 0, 0, 0, 0, 0, 0, 0, 1, 0, 0, 0, 1, 0, 0, 0, 0, 0, 0, 0, 0],[0, 0, 0, 0, 0, 0, 0, 8, 0, 8, 0, 0, 0, 0, 0, 0, 0, 0, 0, 0, 0, 0, 8, 0, 0, 0, 8, 0, 0, 0, 0, 0, 0, 0, 5, 0, 0, 0, 8, 0, 5, 0, 0, 0, 0, 5, 0, 0, 0, 8],[],[],[],[0, 0, 0, 0, 0, 0, 0, 0, 0, 0, 0, 0, 0, 0, 0, 2, 0, 0, 0, 0, 0, 0, 0, 0, 0, 0, 0, 0, 0, 0, 2, 0, 0, 0, 0, 0, 0, 0, 0, 0, 0, 0, 2, 2, 0, 0, 0, 0, 2, 0],[0, 4, 0, 0, 0, 4, 0, 0, 4, 0, 9, 9, 0, 0, 9, 0, 0, 0, 0, 0, 9, 4, 0, 0, 0, 0, 0, 9, 0, 0, 0, 0, 0, 9, 0, 0, 4, 0, 0, 0, 0, 0, 0, 0, 9, 0, 4, 0, 0, 0],[0, 0, 3, 0, 0, 0, 0, 0, 0, 0, 0, 0, 0, 3, 0, 0, 0, 0, 0, 0, 0, 0, 0, 0, 0, 0, 0, 0, 0, 0, 0, 3, 3, 0, 0, 0, 0, 0, 0, 0, 0, 0, 0, 0, 0, 0, 0, 3, 0, 0],[10, 0, 0, 6, 0, 0, 0, 0, 0, 0, 0, 0, 0, 0, 0, 0, 0, 10, 6, 6, 0, 0, 0, 0, 10, 0, 0, 0, 0, 10, 0, 0, 0, 0, 0, 6, 0, 0, 0, 6, 0, 0, 0, 0, 0, 0, 0, 0, 0, 0],[][41, 16, 25, 28, 23, 37],[42, 15, 30, 43, 48],[32, 47, 13, 2, 31],[36, 21, 8, 1, 46, 5],[40, 34, 45],[3, 39, 35, 18, 19],[12, 6, 4],[38, 26, 9, 49, 7, 22],[11, 44, 33, 20, 14, 27, 10],[29, 17, 24, 0]
00001010000010011000000101001000000001000100000000,00000001010000000000001000100000001000101000010011,00000000000000000000000000000000000000000000000000,01000000101100100000110000010000010010000000100000,00000000000000000000000000000000000000000000000000,00000000000000000000000000000000000000000000000000,00000100000000000000000000000000000000000010001000,00100000000001000000000000000001100000000000000100,10010000000000000111000010000110000100010001000000,00000000000000000000000000000000000000000000000000,[0, 0, 0, 0, 1, 0, 1, 0, 0, 0, 0, 0, 5, 0, 0, 5, 5, 0, 0, 0, 0, 0, 0, 1, 0, 1, 0, 0, 1, 0, 0, 0, 0, 0, 0, 0, 0, 5, 0, 0, 0, 1, 0, 0, 0, 0, 0, 0, 0, 0],[0, 0, 0, 0, 0, 0, 0, 2, 0, 2, 0, 0, 0, 0, 0, 0, 0, 0, 0, 0, 0, 0, 10, 0, 0, 0, 2, 0, 0, 0, 0, 0, 0, 0, 2, 0, 0, 0, 2, 0, 10, 0, 0, 0, 0, 10, 0, 0, 2, 10],[],[0, 3, 0, 0, 0, 0, 0, 0, 9, 0, 3, 9, 0, 0, 9, 0, 0, 0, 0, 0, 3, 3, 0, 0, 0, 0, 0, 9, 0, 0, 0, 0, 0, 9, 0, 0, 9, 0, 0, 0, 0, 0, 0, 0, 3, 0, 0, 0, 0, 0],[],[],[0, 0, 0, 0, 0, 4, 0, 0, 0, 0, 0, 0, 0, 0, 0, 0, 0, 0, 0, 0, 0, 0, 0, 0, 0, 0, 0, 0, 0, 0, 0, 0, 0, 0, 0, 0, 0, 0, 0, 0, 0, 0, 4, 0, 0, 0, 4, 0, 0, 0],[0, 0, 7, 0, 0, 0, 0, 0, 0, 0, 0, 0, 0, 7, 0, 0, 0, 0, 0, 0, 0, 0, 0, 0, 0, 0, 0, 0, 0, 0, 0, 7, 7, 0, 0, 0, 0, 0, 0, 0, 0, 0, 0, 0, 0, 0, 0, 7, 0, 0],[8, 0, 0, 8, 0, 0, 0, 0, 0, 0, 0, 0, 0, 0, 0, 0, 0, 8, 6, 6, 0, 0, 0, 0, 6, 0, 0, 0, 0, 8, 8, 0, 0, 0, 0, 6, 0, 0, 0, 6, 0, 0, 0, 8, 0, 0, 0, 0, 0, 0],[][23, 41, 6, 4, 25, 28],[7, 26, 9, 48, 38, 34],[10, 21, 1, 20, 44],[42, 5, 46],[37, 12, 16, 15],[39, 35, 19, 24, 18],[31, 13, 2, 32, 47],[43, 30, 29, 0, 3, 17],[36, 8, 27, 33, 11, 14],[22, 49, 40, 45]
00001010000010011000000101001000000001000100000000,00000000000000000000000000000000000000000000000000,00000000000000000000000000000000000000000000000000,00000000000000000000000000000000000000000000000000,00010000000000000111000010000010000100010001000010,00000000000000000000000000000000000000000000000000,00000100000000100000000000000000010000000010101000,00100001010001000000001000100001101000101000010101,00000000000000000000000000000000000000000000000000,11000000101100000000110000010100000010000000000000,[0, 0, 0, 0, 10, 0, 3, 0, 0, 0, 0, 0, 10, 0, 0, 3, 3, 0, 0, 0, 0, 0, 0, 3, 0, 3, 0, 0, 3, 0, 0, 0, 0, 0, 0, 0, 0, 10, 0, 0, 0, 3, 0, 0, 0, 0, 0, 0, 0, 0],[],[],[],[0, 0, 0, 9, 0, 0, 0, 0, 0, 0, 0, 0, 0, 0, 0, 0, 0, 1, 9, 9, 0, 0, 0, 0, 1, 0, 0, 0, 0, 0, 9, 0, 0, 0, 0, 1, 0, 0, 0, 9, 0, 0, 0, 9, 0, 0, 0, 0, 1, 0],[],[0, 0, 0, 0, 0, 7, 0, 0, 0, 0, 0, 0, 0, 0, 4, 0, 0, 0, 0, 0, 0, 0, 0, 0, 0, 0, 0, 0, 0, 0, 0, 0, 0, 7, 0, 0, 0, 0, 0, 0, 0, 0, 7, 0, 7, 0, 7, 0, 0, 0],[0, 0, 2, 0, 0, 0, 0, 2, 0, 2, 0, 0, 0, 8, 0, 0, 0, 0, 0, 0, 0, 0, 2, 0, 0, 0, 8, 0, 0, 0, 0, 2, 8, 0, 8, 0, 0, 0, 8, 0, 2, 0, 0, 0, 0, 2, 0, 8, 0, 2],[],[6, 5, 0, 0, 0, 0, 0, 0, 5, 0, 6, 6, 0, 0, 0, 0, 0, 0, 0, 0, 6, 6, 0, 0, 0, 0, 0, 6, 0, 6, 0, 0, 0, 0, 0, 0, 6, 0, 0, 0, 0, 0, 0, 0, 0, 0, 0, 0, 0, 0][48, 17, 35, 24],[7, 45, 49, 9, 40, 22, 2, 31],[6, 15, 23, 28, 25, 16, 41],[14],[1, 8],[0, 20, 11, 29, 27, 36, 21, 10],[44, 33, 5, 46, 42],[32, 47, 13, 34, 26, 38],[39, 18, 30, 43, 19, 3],[4, 12, 37]
00000000000000000000000000000000000000000000000000,00000001010000000000001000100000001000101100010001,00000000000000000000000000000000000000000000000000,00000000000000000000000000000000000000000000000000,00010000000000011111000010000010000100010001000010,00000000000000000000000000000000000000000000000000,00000110000010100000000000000000010001000010101000,00101000000001000000000101001001100000000000000100,00000000000000000000000000000000000000000000000000,11000000101100000000110000010100000010000000000000,[],[0, 0, 0, 0, 0, 0, 0, 9, 0, 8, 0, 0, 0, 0, 0, 0, 0, 0, 0, 0, 0, 0, 8, 0, 0, 0, 9, 0, 0, 0, 0, 0, 0, 0, 9, 0, 0, 0, 8, 0, 9, 9, 0, 0, 0, 8, 0, 0, 0, 9],[],[],[0, 0, 0, 4, 0, 0, 0, 0, 0, 0, 0, 0, 0, 0, 0, 1, 1, 4, 1, 1, 0, 0, 0, 0, 1, 0, 0, 0, 0, 0, 1, 0, 0, 0, 0, 1, 0, 0, 0, 1, 0, 0, 0, 4, 0, 0, 0, 0, 4, 0],[],[0, 0, 0, 0, 0, 10, 10, 0, 0, 0, 0, 0, 6, 0, 6, 0, 0, 0, 0, 0, 0, 0, 0, 0, 0, 0, 0, 0, 0, 0, 0, 0, 0, 6, 0, 0, 0, 10, 0, 0, 0, 0, 6, 0, 6, 0, 10, 0, 0, 0],[0, 0, 3, 0, 7, 0, 0, 0, 0, 0, 0, 0, 0, 3, 0, 0, 0, 0, 0, 0, 0, 0, 0, 3, 0, 7, 0, 0, 7, 0, 0, 7, 3, 0, 0, 0, 0, 0, 0, 0, 0, 0, 0, 0, 0, 0, 0, 3, 0, 0],[],[2, 2, 0, 0, 0, 0, 0, 0, 2, 0, 5, 5, 0, 0, 0, 0, 0, 0, 0, 0, 2, 2, 0, 0, 0, 0, 0, 2, 0, 5, 0, 0, 0, 0, 0, 0, 5, 0, 0, 0, 0, 0, 0, 0, 0, 0, 0, 0, 0, 0][24, 35, 19, 39, 18, 15, 30, 16],[1, 8, 20, 21, 0, 27],[2, 23, 47, 13, 32],[43, 3, 17, 48],[11, 29, 10, 36],[44, 33, 42, 12, 14],[4, 25, 28, 31],[9, 38, 22, 45],[34, 40, 49, 26, 7, 41],[37, 6, 5, 46]
00000000000000000000000000000000000000000000000000,00000001010000000000001000100000001000101100010011,10010000000000000111000010000110000100010001000000,00000000000000000000000000000000000000000000000000,00000000000000000000000000000000000000000000000000,00000000000000000000000000000000000000000000000000,00000110000010111000000000000000010001000010101000,00101000000001000000000101001001100000000000000100,00000000000000000000000000000000000000000000000000,01000000101100000000110000010000000010000000000000,[],[0, 0, 0, 0, 0, 0, 0, 8, 0, 1, 0, 0, 0, 0, 0, 0, 0, 0, 0, 0, 0, 0, 8, 0, 0, 0, 1, 0, 0, 0, 0, 0, 0, 0, 8, 0, 0, 0, 1, 0, 8, 1, 0, 0, 0, 1, 0, 0, 8, 8],[6, 0, 0, 10, 0, 0, 0, 0, 0, 0, 0, 0, 0, 0, 0, 0, 0, 6, 10, 6, 0, 0, 0, 0, 6, 0, 0, 0, 0, 6, 6, 0, 0, 0, 0, 6, 0, 0, 0, 10, 0, 0, 0, 6, 0, 0, 0, 0, 0, 0],[],[],[],[0, 0, 0, 0, 0, 3, 5, 0, 0, 0, 0, 0, 3, 0, 3, 5, 5, 0, 0, 0, 0, 0, 0, 0, 0, 0, 0, 0, 0, 0, 0, 0, 0, 3, 0, 0, 0, 5, 0, 0, 0, 0, 3, 0, 3, 0, 3, 0, 0, 0],[0, 0, 4, 0, 2, 0, 0, 0, 0, 0, 0, 0, 0, 4, 0, 0, 0, 0, 0, 0, 0, 0, 0, 2, 0, 2, 0, 0, 4, 0, 0, 2, 4, 0, 0, 0, 0, 0, 0, 0, 0, 0, 0, 0, 0, 0, 0, 2, 0, 0],[],[0, 9, 0, 0, 0, 0, 0, 0, 7, 0, 9, 7, 0, 0, 0, 0, 0, 0, 0, 0, 9, 7, 0, 0, 0, 0, 0, 9, 0, 0, 0, 0, 0, 0, 0, 0, 7, 0, 0, 0, 0, 0, 0, 0, 0, 0, 0, 0, 0, 0][9, 45, 26, 41, 38],[23, 4, 25, 47, 31],[14, 44, 42, 46, 5, 12, 33],[32, 28, 2, 13],[37, 6, 16, 15],[17, 29, 0, 30, 43, 35, 24, 19],[36, 11, 21, 8],[40, 22, 48, 34, 7, 49],[10, 20, 27, 1],[3, 18, 39]
00000000000000000000000000000000000000000000000000,00000001010000000000001000100000001000101100010011,10010000000000000111000010000110000100010001000000,00000000000000000000000000000000000000000000000000,00000000000000000000000000000000000000000000000000,00000000000000000000000000000000000000000000000000,00000110000010111000000000000000010001000010101000,00101000000001000000000101001001100000000000000100,00000000000000000000000000000000000000000000000000,01000000101100000000110000010000000010000000000000,[],[0, 0, 0, 0, 0, 0, 0, 3, 0, 3, 0, 0, 0, 0, 0, 0, 0, 0, 0, 0, 0, 0, 3, 0, 0, 0, 3, 0, 0, 0, 0, 0, 0, 0, 10, 0, 0, 0, 3, 0, 3, 10, 0, 0, 0, 3, 0, 0, 10, 10],[6, 0, 0, 1, 0, 0, 0, 0, 0, 0, 0, 0, 0, 0, 0, 0, 0, 1, 6, 6, 0, 0, 0, 0, 1, 0, 0, 0, 0, 1, 6, 0, 0, 0, 0, 1, 0, 0, 0, 6, 0, 0, 0, 6, 0, 0, 0, 0, 0, 0],[],[],[],[0, 0, 0, 0, 0, 8, 8, 0, 0, 0, 0, 0, 8, 0, 4, 4, 8, 0, 0, 0, 0, 0, 0, 0, 0, 0, 0, 0, 0, 0, 0, 0, 0, 4, 0, 0, 0, 8, 0, 0, 0, 0, 4, 0, 4, 0, 4, 0, 0, 0],[0, 0, 7, 0, 2, 0, 0, 0, 0, 0, 0, 0, 0, 7, 0, 0, 0, 0, 0, 0, 0, 0, 0, 7, 0, 2, 0, 0, 2, 0, 0, 7, 7, 0, 0, 0, 0, 0, 0, 0, 0, 0, 0, 0, 0, 0, 0, 2, 0, 0],[],[0, 5, 0, 0, 0, 0, 0, 0, 9, 0, 9, 9, 0, 0, 0, 0, 0, 0, 0, 0, 9, 9, 0, 0, 0, 0, 0, 5, 0, 0, 0, 0, 0, 0, 0, 0, 5, 0, 0, 0, 0, 0, 0, 0, 0, 0, 0, 0, 0, 0][29, 17, 24, 3, 35],[47, 25, 4, 28],[40, 26, 45, 22, 38, 9, 7],[33, 46, 44, 42, 14, 15],[36, 1, 27],[0, 43, 30, 19, 18, 39],[31, 13, 32, 2, 23],[5, 6, 12, 37, 16],[11, 21, 10, 20, 8],[41, 34, 48, 49]
00001010000011011000000101001000100001000100000000,00100001010000000000001000100001001000101000010101,00000000000000000000000000000000000000000000000000,00000000000000000000000000000000000000000000000000,10010000000000000111000010000110000100010001000010,00000000000000000000000000000000000000000000000000,01000100101100100000110000010000010010000010101000,00000000000000000000000000000000000000000000000000,00000000000000000000000000000000000000000000000000,00000000000000000000000000000000000000000000000000,[0, 0, 0, 0, 6, 0, 2, 0, 0, 0, 0, 0, 2, 6, 0, 2, 2, 0, 0, 0, 0, 0, 0, 6, 0, 6, 0, 0, 2, 0, 0, 0, 2, 0, 0, 0, 0, 2, 0, 0, 0, 6, 0, 0, 0, 0, 0, 0, 0, 0],[0, 0, 8, 0, 0, 0, 0, 8, 0, 3, 0, 0, 0, 0, 0, 0, 0, 0, 0, 0, 0, 0, 3, 0, 0, 0, 8, 0, 0, 0, 0, 3, 0, 0, 3, 0, 0, 0, 8, 0, 8, 0, 0, 0, 0, 3, 0, 3, 0, 3],[],[],[7, 0, 0, 5, 0, 0, 0, 0, 0, 0, 0, 0, 0, 0, 0, 0, 0, 1, 1, 5, 0, 0, 0, 0, 1, 0, 0, 0, 0, 1, 7, 0, 0, 0, 0, 1, 0, 0, 0, 7, 0, 0, 0, 7, 0, 0, 0, 0, 7, 0],[],[0, 9, 0, 0, 0, 9, 0, 0, 4, 0, 9, 9, 0, 0, 10, 0, 0, 0, 0, 0, 9, 9, 0, 0, 0, 0, 0, 4, 0, 0, 0, 0, 0, 4, 0, 0, 10, 0, 0, 0, 0, 0, 10, 0, 10, 0, 4, 0, 0, 0],[],[],[][17, 24, 18, 35, 29],[37, 12, 6, 32, 28, 16, 15],[22, 47, 34, 31, 45, 9, 49],[27, 8, 33, 46],[19, 3],[23, 41, 25, 13, 4],[0, 43, 30, 48, 39],[7, 2, 38, 40, 26],[11, 1, 5, 20, 10, 21],[36, 44, 14, 42]
00001010000010001000000101001000000001000100000000,00000000000000000000000000000000000000000000000000,10010000000000000111000010000110000100010001000000,00000000000000000000000000000000000000000000000000,00000000000000000000000000000000000000000000000000,00000000000000010000000000000000000000000010000010,00000100000000100000000000000000010000000000101000,00100001010001000000001000100001101000101000010101,00000000000000000000000000000000000000000000000000,01000000101100000000110000010000000010000000000000,[0, 0, 0, 0, 2, 0, 4, 0, 0, 0, 0, 0, 2, 0, 0, 0, 4, 0, 0, 0, 0, 0, 0, 2, 0, 4, 0, 0, 2, 0, 0, 0, 0, 0, 0, 0, 0, 4, 0, 0, 0, 2, 0, 0, 0, 0, 0, 0, 0, 0],[],[10, 0, 0, 1, 0, 0, 0, 0, 0, 0, 0, 0, 0, 0, 0, 0, 0, 1, 1, 1, 0, 0, 0, 0, 10, 0, 0, 0, 0, 10, 10, 0, 0, 0, 0, 1, 0, 0, 0, 1, 0, 0, 0, 1, 0, 0, 0, 0, 0, 0],[],[],[0, 0, 0, 0, 0, 0, 0, 0, 0, 0, 0, 0, 0, 0, 0, 7, 0, 0, 0, 0, 0, 0, 0, 0, 0, 0, 0, 0, 0, 0, 0, 0, 0, 0, 0, 0, 0, 0, 0, 0, 0, 0, 7, 0, 0, 0, 0, 0, 7, 0],[0, 0, 0, 0, 0, 8, 0, 0, 0, 0, 0, 0, 0, 0, 8, 0, 0, 0, 0, 0, 0, 0, 0, 0, 0, 0, 0, 0, 0, 0, 0, 0, 0, 8, 0, 0, 0, 0, 0, 0, 0, 0, 0, 0, 8, 0, 8, 0, 0, 0],[0, 0, 9, 0, 0, 0, 0, 6, 0, 9, 0, 0, 0, 9, 0, 0, 0, 0, 0, 0, 0, 0, 6, 0, 0, 0, 9, 0, 0, 0, 0, 9, 6, 0, 9, 0, 0, 0, 6, 0, 6, 0, 0, 0, 0, 9, 0, 6, 0, 9],[],[0, 5, 0, 0, 0, 0, 0, 0, 5, 0, 3, 3, 0, 0, 0, 0, 0, 0, 0, 0, 3, 3, 0, 0, 0, 0, 0, 3, 0, 0, 0, 0, 0, 0, 0, 0, 3, 0, 0, 0, 0, 0, 0, 0, 0, 0, 0, 0, 0, 0][3, 43, 17, 19, 18, 39, 35],[4, 28, 12, 23, 41],[10, 36, 20, 11, 21, 27],[6, 25, 37, 16],[8, 1],[22, 7, 40, 32, 47, 38],[42, 15, 48],[14, 5, 46, 44, 33],[34, 2, 9, 26, 45, 31, 49, 13],[29, 0, 30, 24]
00000000000000000000000000000000000000000000000000,00000001010000000000001000100000001000101100010001,10010000000000000111000010000110000100010001000000,00000000000000000000000000000000000000000000000000,00000000000000000000000000000000000000000000000000,00000110000010011000000000000000000001000010001010,00000000000000000000000000000000000000000000000000,00101000000001000000000101001001100000000000000100,00000000000000000000000000000000000000000000000000,01000000101100100000110000010000010010000000100000,[],[0, 0, 0, 0, 0, 0, 0, 6, 0, 4, 0, 0, 0, 0, 0, 0, 0, 0, 0, 0, 0, 0, 6, 0, 0, 0, 6, 0, 0, 0, 0, 0, 0, 0, 6, 0, 0, 0, 4, 0, 4, 6, 0, 0, 0, 4, 0, 0, 0, 6],[8, 0, 0, 9, 0, 0, 0, 0, 0, 0, 0, 0, 0, 0, 0, 0, 0, 8, 8, 8, 0, 0, 0, 0, 9, 0, 0, 0, 0, 9, 9, 0, 0, 0, 0, 9, 0, 0, 0, 9, 0, 0, 0, 9, 0, 0, 0, 0, 0, 0],[],[],[0, 0, 0, 0, 0, 7, 7, 0, 0, 0, 0, 0, 7, 0, 0, 10, 10, 0, 0, 0, 0, 0, 0, 0, 0, 0, 0, 0, 0, 0, 0, 0, 0, 0, 0, 0, 0, 10, 0, 0, 0, 0, 10, 0, 0, 0, 10, 0, 7, 0],[],[0, 0, 2, 0, 2, 0, 0, 0, 0, 0, 0, 0, 0, 5, 0, 0, 0, 0, 0, 0, 0, 0, 0, 5, 0, 2, 0, 0, 2, 0, 0, 5, 2, 0, 0, 0, 0, 0, 0, 0, 0, 0, 0, 0, 0, 0, 0, 5, 0, 0],[],[0, 1, 0, 0, 0, 0, 0, 0, 1, 0, 3, 3, 0, 0, 3, 0, 0, 0, 0, 0, 1, 1, 0, 0, 0, 0, 0, 1, 0, 0, 0, 0, 0, 3, 0, 0, 1, 0, 0, 0, 0, 0, 0, 0, 1, 0, 0, 0, 0, 0][36, 27, 21, 44, 20, 1, 8],[32, 2, 28, 4, 25],[14, 33, 11, 10],[38, 40, 45, 9],[47, 23, 13, 31],[41, 22, 7, 26, 49, 34],[5, 12, 6, 48],[18, 17, 0, 19],[3, 43, 30, 29, 39, 35, 24],[16, 15, 37, 42, 46]
00000000000000000000000000000000000000000000000000,00000001010000000000001000100000001000101100010011,10010000000000000111000010000110000100010001000000,00000000000000000000000000000000000000000000000000,00000000000000000000000000000000000000000000000000,00000000000000000000000000000000000000000000000000,00000110000010111000000000000000010001000010101000,00101000000001000000000101001001100000000000000100,00000000000000000000000000000000000000000000000000,01000000101100000000110000010000000010000000000000,[],[0, 0, 0, 0, 0, 0, 0, 2, 0, 9, 0, 0, 0, 0, 0, 0, 0, 0, 0, 0, 0, 0, 9, 0, 0, 0, 9, 0, 0, 0, 0, 0, 0, 0, 2, 0, 0, 0, 2, 0, 9, 2, 0, 0, 0, 2, 0, 0, 2, 2],[4, 0, 0, 3, 0, 0, 0, 0, 0, 0, 0, 0, 0, 0, 0, 0, 0, 4, 3, 4, 0, 0, 0, 0, 4, 0, 0, 0, 0, 3, 3, 0, 0, 0, 0, 3, 0, 0, 0, 3, 0, 0, 0, 3, 0, 0, 0, 0, 0, 0],[],[],[],[0, 0, 0, 0, 0, 7, 7, 0, 0, 0, 0, 0, 8, 0, 8, 7, 7, 0, 0, 0, 0, 0, 0, 0, 0, 0, 0, 0, 0, 0, 0, 0, 0, 8, 0, 0, 0, 8, 0, 0, 0, 0, 7, 0, 7, 0, 8, 0, 0, 0],[0, 0, 6, 0, 6, 0, 0, 0, 0, 0, 0, 0, 0, 6, 0, 0, 0, 0, 0, 0, 0, 0, 0, 10, 0, 6, 0, 0, 6, 0, 0, 10, 10, 0, 0, 0, 0, 0, 0, 0, 0, 0, 0, 0, 0, 0, 0, 6, 0, 0],[],[0, 1, 0, 0, 0, 0, 0, 0, 1, 0, 1, 5, 0, 0, 0, 0, 0, 0, 0, 0, 1, 5, 0, 0, 0, 0, 0, 1, 0, 0, 0, 0, 0, 0, 0, 0, 1, 0, 0, 0, 0, 0, 0, 0, 0, 0, 0, 0, 0, 0][27, 10, 8, 20, 1, 36],[48, 41, 38, 49, 45, 7, 34],[29, 35, 18, 39, 30, 43, 3],[17, 19, 24, 0],[11, 21],[47, 13, 28, 4, 25, 2],[15, 6, 16, 5, 42, 44],[33, 37, 12, 14, 46],[22, 9, 40, 26],[31, 32, 23]
00000000000000000000000000000000000000000000000000,00000001010000000000001000100000001000101100010001,00000000000000000000000000000000000000000000000000,01000000101100100000110000010000010010000000100000,00000000000000000000000000000000000000000000000000,00000000000000011000000000000010000000000011000010,00000110000010000000000000000000000001000000001000,00101000000001000000000101001001100000000000000100,10010000000000000111000010000100000100010000000000,00000000000000000000000000000000000000000000000000,[],[0, 0, 0, 0, 0, 0, 0, 6, 0, 6, 0, 0, 0, 0, 0, 0, 0, 0, 0, 0, 0, 0, 6, 0, 0, 0, 5, 0, 0, 0, 0, 0, 0, 0, 5, 0, 0, 0, 6, 0, 6, 5, 0, 0, 0, 6, 0, 0, 0, 6],[],[0, 3, 0, 0, 0, 0, 0, 0, 3, 0, 3, 1, 0, 0, 3, 0, 0, 0, 0, 0, 1, 3, 0, 0, 0, 0, 0, 3, 0, 0, 0, 0, 0, 1, 0, 0, 3, 0, 0, 0, 0, 0, 0, 0, 1, 0, 0, 0, 0, 0],[],[0, 0, 0, 0, 0, 0, 0, 0, 0, 0, 0, 0, 0, 0, 0, 10, 10, 0, 0, 0, 0, 0, 0, 0, 0, 0, 0, 0, 0, 0, 10, 0, 0, 0, 0, 0, 0, 0, 0, 0, 0, 0, 10, 10, 0, 0, 0, 0, 10, 0],[0, 0, 0, 0, 0, 7, 7, 0, 0, 0, 0, 0, 7, 0, 0, 0, 0, 0, 0, 0, 0, 0, 0, 0, 0, 0, 0, 0, 0, 0, 0, 0, 0, 0, 0, 0, 0, 7, 0, 0, 0, 0, 0, 0, 0, 0, 7, 0, 0, 0],[0, 0, 9, 0, 9, 0, 0, 0, 0, 0, 0, 0, 0, 2, 0, 0, 0, 0, 0, 0, 0, 0, 0, 9, 0, 2, 0, 0, 2, 0, 0, 9, 2, 0, 0, 0, 0, 0, 0, 0, 0, 0, 0, 0, 0, 0, 0, 2, 0, 0],[4, 0, 0, 8, 0, 0, 0, 0, 0, 0, 0, 0, 0, 0, 0, 0, 0, 4, 4, 8, 0, 0, 0, 0, 4, 0, 0, 0, 0, 8, 0, 0, 0, 0, 0, 8, 0, 0, 0, 4, 0, 0, 0, 0, 0, 0, 0, 0, 0, 0],[][44, 33, 11, 20],[25, 47, 32, 28, 13],[21, 10, 27, 1, 8, 36, 14],[24, 17, 39, 0, 18],[26, 34, 41],[45, 7, 22, 38, 49, 40, 9],[12, 6, 37, 5, 46],[3, 19, 29, 35],[2, 23, 4, 31],[15, 48, 16, 42, 43, 30]
00000000000000000000000000000000000000000000000000,00000001010000000000001000100000001000101100010001,00000000000000000000000000000000000000000000000000,00000000000000000000000000000000000000000000000000,00010000000000000111000010000010000100010001000010,00000110000010011000000000000000000001000010001000,00000000000000000000000000000000000000000000000000,00101000000001000000000101001001100000000000000100,00000000000000000000000000000000000000000000000000,11000000101100100000110000010100010010000000100000,[],[0, 0, 0, 0, 0, 0, 0, 6, 0, 10, 0, 0, 0, 0, 0, 0, 0, 0, 0, 0, 0, 0, 10, 0, 0, 0, 10, 0, 0, 0, 0, 0, 0, 0, 10, 0, 0, 0, 10, 0, 6, 6, 0, 0, 0, 6, 0, 0, 0, 6],[],[],[0, 0, 0, 2, 0, 0, 0, 0, 0, 0, 0, 0, 0, 0, 0, 0, 0, 2, 2, 2, 0, 0, 0, 0, 8, 0, 0, 0, 0, 0, 8, 0, 0, 0, 0, 8, 0, 0, 0, 2, 0, 0, 0, 8, 0, 0, 0, 0, 8, 0],[0, 0, 0, 0, 0, 5, 9, 0, 0, 0, 0, 0, 9, 0, 0, 9, 9, 0, 0, 0, 0, 0, 0, 0, 0, 0, 0, 0, 0, 0, 0, 0, 0, 0, 0, 0, 0, 5, 0, 0, 0, 0, 9, 0, 0, 0, 9, 0, 0, 0],[],[0, 0, 3, 0, 7, 0, 0, 0, 0, 0, 0, 0, 0, 7, 0, 0, 0, 0, 0, 0, 0, 0, 0, 3, 0, 3, 0, 0, 3, 0, 0, 7, 7, 0, 0, 0, 0, 0, 0, 0, 0, 0, 0, 0, 0, 0, 0, 3, 0, 0],[],[1, 1, 0, 0, 0, 0, 0, 0, 1, 0, 1, 4, 0, 0, 4, 0, 0, 0, 0, 0, 4, 1, 0, 0, 0, 0, 0, 1, 0, 1, 0, 0, 0, 4, 0, 0, 1, 0, 0, 0, 0, 0, 0, 0, 4, 0, 0, 0, 0, 0][27, 29, 10, 1, 8, 36, 21, 0],[18, 39, 17, 19, 3],[47, 28, 25, 23, 2],[20, 14, 33, 44, 11],[37, 5],[45, 40, 49, 41, 7],[31, 32, 4, 13],[48, 35, 24, 30, 43],[46, 42, 6, 12, 15, 16],[9, 26, 38, 22, 34]
00001010000010011000000101001000000001000100000000,00000001010000000000001000100000001000101000010011,00000000000000000000000000000000000000000000000000,00000000000000000000000000000000000000000000000000,00000000000000000000000000000000000000000000000000,00000000000000000000000000000000000000000000000000,00000100000000100000000000000000010000000010101000,00100000000001000000000000000001100000000000000100,10010000000000000111000010000110000100010001000000,01000000101100000000110000010000000010000000000000,[0, 0, 0, 0, 3, 0, 10, 0, 0, 0, 0, 0, 3, 0, 0, 10, 10, 0, 0, 0, 0, 0, 0, 10, 0, 3, 0, 0, 3, 0, 0, 0, 0, 0, 0, 0, 0, 3, 0, 0, 0, 10, 0, 0, 0, 0, 0, 0, 0, 0],[0, 0, 0, 0, 0, 0, 0, 5, 0, 5, 0, 0, 0, 0, 0, 0, 0, 0, 0, 0, 0, 0, 8, 0, 0, 0, 8, 0, 0, 0, 0, 0, 0, 0, 8, 0, 0, 0, 8, 0, 8, 0, 0, 0, 0, 5, 0, 0, 5, 8],[],[],[],[],[0, 0, 0, 0, 0, 2, 0, 0, 0, 0, 0, 0, 0, 0, 2, 0, 0, 0, 0, 0, 0, 0, 0, 0, 0, 0, 0, 0, 0, 0, 0, 0, 0, 2, 0, 0, 0, 0, 0, 0, 0, 0, 2, 0, 2, 0, 2, 0, 0, 0],[0, 0, 7, 0, 0, 0, 0, 0, 0, 0, 0, 0, 0, 7, 0, 0, 0, 0, 0, 0, 0, 0, 0, 0, 0, 0, 0, 0, 0, 0, 0, 7, 7, 0, 0, 0, 0, 0, 0, 0, 0, 0, 0, 0, 0, 0, 0, 7, 0, 0],[6, 0, 0, 1, 0, 0, 0, 0, 0, 0, 0, 0, 0, 0, 0, 0, 0, 6, 6, 1, 0, 0, 0, 0, 1, 0, 0, 0, 0, 6, 6, 0, 0, 0, 0, 6, 0, 0, 0, 6, 0, 0, 0, 1, 0, 0, 0, 0, 0, 0],[0, 4, 0, 0, 0, 0, 0, 0, 4, 0, 4, 9, 0, 0, 0, 0, 0, 0, 0, 0, 9, 9, 0, 0, 0, 0, 0, 9, 0, 0, 0, 0, 0, 0, 0, 0, 9, 0, 0, 0, 0, 0, 0, 0, 0, 0, 0, 0, 0, 0][3, 43, 24, 19],[42, 46, 33, 14, 44, 5],[28, 25, 37, 4, 12],[1, 10, 8],[7, 9, 48, 45],[17, 35, 18, 39, 29, 0, 30],[32, 13, 47, 2, 31],[22, 34, 38, 40, 26, 49],[20, 11, 36, 21, 27],[15, 6, 41, 16, 23]
00001010000010011000000101001000000001000100000000,00000000000000000000000000000000000000000000000000,00000000000000000000000000000000000000000000000000,00000000000000000000000000000000000000000000000000,00000000000000000000000000000000000000000000000000,00000000000000000000000000000000000000000000000000,01000100101100100000110000010000010010000010101000,00100001010001000000001000100001101000101000010101,10010000000000000111000010000110000100010001000010,00000000000000000000000000000000000000000000000000,[0, 0, 0, 0, 4, 0, 10, 0, 0, 0, 0, 0, 5, 0, 0, 4, 10, 0, 0, 0, 0, 0, 0, 5, 0, 10, 0, 0, 10, 0, 0, 0, 0, 0, 0, 0, 0, 5, 0, 0, 0, 5, 0, 0, 0, 0, 0, 0, 0, 0],[],[],[],[],[],[0, 9, 0, 0, 0, 3, 0, 0, 2, 0, 9, 3, 0, 0, 3, 0, 0, 0, 0, 0, 2, 3, 0, 0, 0, 0, 0, 9, 0, 0, 0, 0, 0, 3, 0, 0, 2, 0, 0, 0, 0, 0, 2, 0, 9, 0, 9, 0, 0, 0],[0, 0, 7, 0, 0, 0, 0, 7, 0, 7, 0, 0, 0, 7, 0, 0, 0, 0, 0, 0, 0, 0, 6, 0, 0, 0, 6, 0, 0, 0, 0, 6, 6, 0, 7, 0, 0, 0, 6, 0, 6, 0, 0, 0, 0, 6, 0, 7, 0, 6],[8, 0, 0, 1, 0, 0, 0, 0, 0, 0, 0, 0, 0, 0, 0, 0, 0, 1, 1, 8, 0, 0, 0, 0, 1, 0, 0, 0, 0, 1, 1, 0, 0, 0, 0, 1, 0, 0, 0, 8, 0, 0, 0, 8, 0, 0, 0, 0, 8, 0],[][30, 3, 17, 24, 29, 18, 35],[8, 36, 42, 20],[5, 14, 21, 11, 33],[4, 15],[41, 23, 12, 37],[32, 31, 38, 22, 26, 49, 45, 40],[7, 2, 34, 9, 47, 13],[43, 0, 39, 19, 48],[46, 27, 10, 1, 44],[16, 25, 28, 6]
00001010000011001000000101001000100001000100000000,00100001010000000000001000100001001000101000010101,00000000000000000000000000000000000000000000000000,00000000000000000000000000000000000000000000000000,00000000000000000000000000000000000000000000000000,00000000000000010000000000000010000000000011000010,01000100101100100000110000010000010010000000101000,00000000000000000000000000000000000000000000000000,10010000000000000111000010000100000100010000000000,00000000000000000000000000000000000000000000000000,[0, 0, 0, 0, 3, 0, 3, 0, 0, 0, 0, 0, 1, 1, 0, 0, 1, 0, 0, 0, 0, 0, 0, 1, 0, 3, 0, 0, 1, 0, 0, 0, 1, 0, 0, 0, 0, 3, 0, 0, 0, 1, 0, 0, 0, 0, 0, 0, 0, 0],[0, 0, 9, 0, 0, 0, 0, 8, 0, 8, 0, 0, 0, 0, 0, 0, 0, 0, 0, 0, 0, 0, 9, 0, 0, 0, 9, 0, 0, 0, 0, 9, 0, 0, 8, 0, 0, 0, 8, 0, 8, 0, 0, 0, 0, 8, 0, 9, 0, 9],[],[],[],[0, 0, 0, 0, 0, 0, 0, 0, 0, 0, 0, 0, 0, 0, 0, 4, 0, 0, 0, 0, 0, 0, 0, 0, 0, 0, 0, 0, 0, 0, 4, 0, 0, 0, 0, 0, 0, 0, 0, 0, 0, 0, 4, 5, 0, 0, 0, 0, 4, 0],[0, 2, 0, 0, 0, 2, 0, 0, 6, 0, 2, 2, 0, 0, 6, 0, 0, 0, 0, 0, 6, 6, 0, 0, 0, 0, 0, 6, 0, 0, 0, 0, 0, 2, 0, 0, 2, 0, 0, 0, 0, 0, 0, 0, 2, 0, 2, 0, 0, 0],[],[10, 0, 0, 10, 0, 0, 0, 0, 0, 0, 0, 0, 0, 0, 0, 0, 0, 10, 7, 7, 0, 0, 0, 0, 7, 0, 0, 0, 0, 10, 0, 0, 0, 0, 0, 10, 0, 0, 0, 7, 0, 0, 0, 0, 0, 0, 0, 0, 0, 0],[][16, 41, 23, 13, 32, 28, 12],[10, 1, 44, 36, 11, 46, 5, 33],[37, 6, 4, 25],[42, 48, 30, 15],[43],[21, 20, 27, 8, 14],[24, 19, 39, 18],[38, 34, 7, 45, 40, 9],[49, 26, 22, 2, 47, 31],[35, 17, 0, 29, 3]
